min: c;

c = 3.92320684637861 * u5_t4_h2 + 3.92320684637861 * u5_t7_h2 + 3.07072971455386 * u5_t4_h3 + 3.07072971455386 * u5_t7_h3 + 3.40595819883718 * u5_t1_h4 + 3.40595819883718 * u5_t3_h4 + 3.40595819883718 * u5_t4_h4 + 3.40595819883718 * u5_t7_h4 + 3.37506203708276 * u5_t1_h5 + 3.37506203708276 * u5_t3_h5 + 3.37506203708276 * u5_t4_h5 + 3.37506203708276 * u5_t7_h5 + 4.12545733376753 * u5_t1_h6 + 4.12545733376753 * u5_t3_h6 + 4.12545733376753 * u5_t4_h6 + 4.12545733376753 * u5_t6_h6 + 4.12545733376753 * u5_t7_h6 + 3.59536372648399 * u5_t1_h7 + 3.59536372648399 * u5_t3_h7 + 3.59536372648399 * u5_t4_h7 + 3.59536372648399 * u5_t6_h7 + 5.13690163626308 * u5_t1_h8 + 5.13690163626308 * u5_t3_h8 + 5.13690163626308 * u5_t4_h8 + 5.13690163626308 * u5_t6_h8 + 4.58661517473723 * u5_t1_h9 + 4.58661517473723 * u5_t3_h9 + 4.58661517473723 * u5_t4_h9 + 4.58661517473723 * u5_t6_h9 + 5.26733445077691 * u5_t1_h10 + 5.26733445077691 * u5_t3_h10 + 5.26733445077691 * u5_t4_h10 + 5.26733445077691 * u5_t6_h10 + 3.84707398866641 * u5_t1_h11 + 3.84707398866641 * u5_t3_h11 + 3.84707398866641 * u5_t4_h11 + 3.84707398866641 * u5_t6_h11 + 5.85928754393797 * u5_t1_h12 + 5.85928754393797 * u5_t3_h12 + 5.85928754393797 * u5_t4_h12 + 5.85928754393797 * u5_t6_h12 + 4.89568129894184 * u5_t1_h13 + 4.89568129894184 * u5_t3_h13 + 4.89568129894184 * u5_t4_h13 + 4.89568129894184 * u5_t6_h13 + 4.89568129894184 * u5_t8_h13 + 5.76543726354101 * u5_t1_h14 + 5.76543726354101 * u5_t3_h14 + 5.76543726354101 * u5_t4_h14 + 5.76543726354101 * u5_t6_h14 + 5.76543726354101 * u5_t8_h14 + 6.48367519103213 * u5_t1_h15 + 6.48367519103213 * u5_t3_h15 + 6.48367519103213 * u5_t4_h15 + 6.48367519103213 * u5_t6_h15 + 6.48367519103213 * u5_t8_h15 + 6.48367519103213 * u5_t9_h15 + 5.56485888588049 * u5_t1_h16 + 5.56485888588049 * u5_t3_h16 + 5.56485888588049 * u5_t4_h16 + 5.56485888588049 * u5_t5_h16 + 5.56485888588049 * u5_t6_h16 + 5.56485888588049 * u5_t8_h16 + 5.56485888588049 * u5_t9_h16 + 6.58058733293443 * u5_t1_h17 + 6.58058733293443 * u5_t5_h17 + 6.58058733293443 * u5_t6_h17 + 6.58058733293443 * u5_t8_h17 + 6.58058733293443 * u5_t9_h17 + 6.58058733293443 * u5_t10_h17 + 6.28484346865736 * u5_t1_h18 + 6.28484346865736 * u5_t2_h18 + 6.28484346865736 * u5_t5_h18 + 6.28484346865736 * u5_t6_h18 + 6.28484346865736 * u5_t9_h18 + 6.28484346865736 * u5_t10_h18 + 5.34122791467953 * u5_t1_h19 + 5.34122791467953 * u5_t2_h19 + 5.34122791467953 * u5_t5_h19 + 5.34122791467953 * u5_t9_h19 + 5.34122791467953 * u5_t10_h19 + 5.93804295345015 * u5_t1_h20 + 5.93804295345015 * u5_t2_h20 + 5.93804295345015 * u5_t5_h20 + 5.93804295345015 * u5_t9_h20 + 5.93804295345015 * u5_t10_h20 + 5.03538266892905 * u5_t2_h21 + 5.03538266892905 * u5_t5_h21 + 5.03538266892905 * u5_t9_h21 + 5.03538266892905 * u5_t10_h21 + 5.40466648400341 * u5_t2_h22 + 5.40466648400341 * u5_t5_h22 + 5.40466648400341 * u5_t9_h22 + 5.40466648400341 * u5_t10_h22 + 5.0075062515716 * u5_t5_h23 + 5.0075062515716 * u5_t9_h23 + 5.0075062515716 * u5_t10_h23;
0 <= u5_t1_h4 <= 1;
0 <= u5_t1_h5 <= 1;
0 <= u5_t1_h6 <= 1;
0 <= u5_t1_h7 <= 1;
0 <= u5_t1_h8 <= 1;
0 <= u5_t1_h9 <= 1;
0 <= u5_t1_h10 <= 1;
0 <= u5_t1_h11 <= 1;
0 <= u5_t1_h12 <= 1;
0 <= u5_t1_h13 <= 1;
0 <= u5_t1_h14 <= 1;
0 <= u5_t1_h15 <= 1;
0 <= u5_t1_h16 <= 1;
0 <= u5_t1_h17 <= 1;
0 <= u5_t1_h18 <= 1;
0 <= u5_t1_h19 <= 1;
0 <= u5_t1_h20 <= 1;
u5_t1_h4 + u5_t1_h5 + u5_t1_h6 + u5_t1_h7 + u5_t1_h8 + u5_t1_h9 + u5_t1_h10 + u5_t1_h11 + u5_t1_h12 + u5_t1_h13 + u5_t1_h14 + u5_t1_h15 + u5_t1_h16 + u5_t1_h17 + u5_t1_h18 + u5_t1_h19 + u5_t1_h20 = 1;
0 <= u5_t2_h18 <= 1;
0 <= u5_t2_h19 <= 1;
0 <= u5_t2_h20 <= 1;
0 <= u5_t2_h21 <= 1;
0 <= u5_t2_h22 <= 1;
u5_t2_h18 + u5_t2_h19 + u5_t2_h20 + u5_t2_h21 + u5_t2_h22 = 3;
0 <= u5_t3_h4 <= 1;
0 <= u5_t3_h5 <= 1;
0 <= u5_t3_h6 <= 1;
0 <= u5_t3_h7 <= 1;
0 <= u5_t3_h8 <= 1;
0 <= u5_t3_h9 <= 1;
0 <= u5_t3_h10 <= 1;
0 <= u5_t3_h11 <= 1;
0 <= u5_t3_h12 <= 1;
0 <= u5_t3_h13 <= 1;
0 <= u5_t3_h14 <= 1;
0 <= u5_t3_h15 <= 1;
0 <= u5_t3_h16 <= 1;
u5_t3_h4 + u5_t3_h5 + u5_t3_h6 + u5_t3_h7 + u5_t3_h8 + u5_t3_h9 + u5_t3_h10 + u5_t3_h11 + u5_t3_h12 + u5_t3_h13 + u5_t3_h14 + u5_t3_h15 + u5_t3_h16 = 1;
0 <= u5_t4_h2 <= 1;
0 <= u5_t4_h3 <= 1;
0 <= u5_t4_h4 <= 1;
0 <= u5_t4_h5 <= 1;
0 <= u5_t4_h6 <= 1;
0 <= u5_t4_h7 <= 1;
0 <= u5_t4_h8 <= 1;
0 <= u5_t4_h9 <= 1;
0 <= u5_t4_h10 <= 1;
0 <= u5_t4_h11 <= 1;
0 <= u5_t4_h12 <= 1;
0 <= u5_t4_h13 <= 1;
0 <= u5_t4_h14 <= 1;
0 <= u5_t4_h15 <= 1;
0 <= u5_t4_h16 <= 1;
u5_t4_h2 + u5_t4_h3 + u5_t4_h4 + u5_t4_h5 + u5_t4_h6 + u5_t4_h7 + u5_t4_h8 + u5_t4_h9 + u5_t4_h10 + u5_t4_h11 + u5_t4_h12 + u5_t4_h13 + u5_t4_h14 + u5_t4_h15 + u5_t4_h16 = 3;
0 <= u5_t5_h16 <= 1;
0 <= u5_t5_h17 <= 1;
0 <= u5_t5_h18 <= 1;
0 <= u5_t5_h19 <= 1;
0 <= u5_t5_h20 <= 1;
0 <= u5_t5_h21 <= 1;
0 <= u5_t5_h22 <= 1;
0 <= u5_t5_h23 <= 1;
u5_t5_h16 + u5_t5_h17 + u5_t5_h18 + u5_t5_h19 + u5_t5_h20 + u5_t5_h21 + u5_t5_h22 + u5_t5_h23 = 2;
0 <= u5_t6_h6 <= 1;
0 <= u5_t6_h7 <= 1;
0 <= u5_t6_h8 <= 1;
0 <= u5_t6_h9 <= 1;
0 <= u5_t6_h10 <= 1;
0 <= u5_t6_h11 <= 1;
0 <= u5_t6_h12 <= 1;
0 <= u5_t6_h13 <= 1;
0 <= u5_t6_h14 <= 1;
0 <= u5_t6_h15 <= 1;
0 <= u5_t6_h16 <= 1;
0 <= u5_t6_h17 <= 1;
0 <= u5_t6_h18 <= 1;
u5_t6_h6 + u5_t6_h7 + u5_t6_h8 + u5_t6_h9 + u5_t6_h10 + u5_t6_h11 + u5_t6_h12 + u5_t6_h13 + u5_t6_h14 + u5_t6_h15 + u5_t6_h16 + u5_t6_h17 + u5_t6_h18 = 2;
0 <= u5_t7_h2 <= 1;
0 <= u5_t7_h3 <= 1;
0 <= u5_t7_h4 <= 1;
0 <= u5_t7_h5 <= 1;
0 <= u5_t7_h6 <= 1;
u5_t7_h2 + u5_t7_h3 + u5_t7_h4 + u5_t7_h5 + u5_t7_h6 = 1;
0 <= u5_t8_h13 <= 1;
0 <= u5_t8_h14 <= 1;
0 <= u5_t8_h15 <= 1;
0 <= u5_t8_h16 <= 1;
0 <= u5_t8_h17 <= 1;
u5_t8_h13 + u5_t8_h14 + u5_t8_h15 + u5_t8_h16 + u5_t8_h17 = 3;
0 <= u5_t9_h15 <= 1;
0 <= u5_t9_h16 <= 1;
0 <= u5_t9_h17 <= 1;
0 <= u5_t9_h18 <= 1;
0 <= u5_t9_h19 <= 1;
0 <= u5_t9_h20 <= 1;
0 <= u5_t9_h21 <= 1;
0 <= u5_t9_h22 <= 1;
0 <= u5_t9_h23 <= 1;
u5_t9_h15 + u5_t9_h16 + u5_t9_h17 + u5_t9_h18 + u5_t9_h19 + u5_t9_h20 + u5_t9_h21 + u5_t9_h22 + u5_t9_h23 = 1;
0 <= u5_t10_h17 <= 1;
0 <= u5_t10_h18 <= 1;
0 <= u5_t10_h19 <= 1;
0 <= u5_t10_h20 <= 1;
0 <= u5_t10_h21 <= 1;
0 <= u5_t10_h22 <= 1;
0 <= u5_t10_h23 <= 1;
u5_t10_h17 + u5_t10_h18 + u5_t10_h19 + u5_t10_h20 + u5_t10_h21 + u5_t10_h22 + u5_t10_h23 = 1;
